
Gurobi 11.0.3 (linux64) logging started Thu Nov 21 23:46:10 2024

Set parameter LogFile to value "/home/yihong/Coding/OR_SUC/SUC_results_bigM100000_thread4/case24_ieee_rts_theta0.5_epsilon0.05_gurobi_seed300000_num_gen100_N_WDR100_load_scaling_factor1_proposed_T20quadra_cost.txt"
Set parameter TimeLimit to value 3600
Gurobi Optimizer version 11.0.3 build v11.0.3rc0 (linux64 - "Ubuntu 20.04.6 LTS")

CPU model: AMD EPYC 7532 32-Core Processor, instruction set [SSE2|AVX|AVX2]
Thread count: 64 physical cores, 128 logical processors, using up to 4 threads

Optimize a model with 47882 rows, 24901 columns and 1096282 nonzeros
Model fingerprint: 0x7ce31c66
Model has 2000 quadratic constraints
Variable types: 22901 continuous, 2000 integer (2000 binary)
Coefficient statistics:
  Matrix range     [3e-04, 2e+03]
  QMatrix range    [2e-03, 8e-03]
  QLMatrix range   [6e-02, 6e+01]
  Objective range  [1e+00, 1e+00]
  Bounds range     [1e+00, 1e+00]
  RHS range        [1e+00, 9e+03]
Presolve removed 39269 rows and 10639 columns
Presolve time: 0.33s
Presolved: 8613 rows, 14262 columns, 47774 nonzeros
Presolved model has 2000 quadratic constraint(s)
Variable types: 12262 continuous, 2000 integer (2000 binary)

Root relaxation: objective 4.114379e+04, 7017 iterations, 0.19 seconds (0.27 work units)

    Nodes    |    Current Node    |     Objective Bounds      |     Work
 Expl Unexpl |  Obj  Depth IntInf | Incumbent    BestBd   Gap | It/Node Time

     0     0 41143.7933    0    -          - 41143.7933      -     -    0s
     0     0 271406.305    0  625          - 271406.305      -     -    1s
     0     0 478841.627    0  645          - 478841.627      -     -    1s
     0     0 478880.878    0  359          - 478880.878      -     -    1s
     0     0 479170.430    0  247          - 479170.430      -     -    1s
     0     0 479172.153    0  247          - 479172.153      -     -    1s
     0     0 479173.418    0  247          - 479173.418      -     -    1s
     0     2 479173.418    0  247          - 479173.418      -     -    2s
   114   171 479243.362   26  254          - 479184.402      -  40.2    5s
H  686   500                    479635.76376 479184.711  0.09%  18.9    7s
*  686   500             162    479635.76376 479184.711  0.09%  18.9    7s
H  718   407                    479508.29446 479186.402  0.07%  19.2    7s
*  718   407             158    479508.29446 479186.402  0.07%  19.2    7s

Cutting planes:
  Gomory: 97
  Implied bound: 413
  MIR: 72
  Flow cover: 181
  RLT: 232

Explored 737 nodes (34572 simplex iterations) in 8.10 seconds (12.79 work units)
Thread count was 4 (of 128 available processors)

Solution count 3: 479508 479508 479636 

Optimal solution found (tolerance 1.00e-03)
Warning: max constraint violation (5.3419e-07) exceeds tolerance
Best objective 4.795082944649e+05, best bound 4.791864022775e+05, gap 0.0671%
